NAME : City data
COMMENT : 7 locations from adjacency list
COMMENT : Generated using NetworkX
TYPE : TSP
DIMENSION : 7
EDGE_WEIGHT_TYPE : EUC_2D
NODE_COORD_SECTION
1 46.6385 71.1307
2 43.1025 60.1363
3 37.7358 66.6288
4 31.8756 57.3015
5 40.4456 65.3949
6 35.2848 66.1870
7 42.3950 59.4070
EOF



